set NODES :=S P1 P2 P3 M1 M2 M3 M4 T;
set SOURCE :=S;


param: ARCS: capacity:=
S P1 8
S P2 10
S P3 12
P1 M1 6
P1 M2 6
P1 M3 6
P2 M1 6
P2 M2 6
P2 M3 6
P2 M4 6
P3 M1 6
P3 M2 6
M1 T 8
M2 T 8
M3 T 8
M4 T 8
T S 32;

param netDemand:=
S 0
P1 0
P2 0
P3 0
M1 0
M2 0
M3 0
M4 0
T 0;
